language ESSENCE' 1.0
letting values be [[0, 6, 0, 7, 0, 0, 5, 0, 1], [0, 0, 7, 4, 9, 8, 2, 0, 0], [2, 0, 3, 0, 1, 5, 7, 8, 0], [4, 3, 0, 1, 0, 9, 6, 5, 7], [5, 0, 6, 2, 0, 3, 0, 0, 8], [0, 8, 9, 5, 0, 0, 0, 0, 0], [0, 9, 0, 3, 2, 1, 8, 0, 4], [0, 2, 0, 0, 0, 0, 9, 6, 0], [8, 7, 4, 0, 0, 0, 0, 1, 0]]